100
    1    74    74
    2    47    47
    3    71    71
    4    83    83
    5    61    61
    6    25    25
    7    58    58
    8     9     9
    9    35    35
   10    14    14
   11    92    92
   12    98    98
   13    60    60
   14    34    34
   15    70    70
   16     4     4
   17    84    84
   18    95    95
   19    89    89
   20    43    43
   21     6     6
   22   100   100
   23    66    66
   24    32    32
   25    19    19
   26    12    12
   27    39    39
   28    35    35
   29    83    83
   30    36    36
   31    27    27
   32     9     9
   33    96    96
   34    35    35
   35    11    11
   36    99    99
   37    28    28
   38    27    27
   39    33    33
   40    66    66
   41    76    76
   42    54    54
   43    54    54
   44    80    80
   45    79    79
   46    77    77
   47    89    89
   48    29    29
   49     7     7
   50    70    70
   51    27    27
   52     3     3
   53    33    33
   54    57    57
   55    26    26
   56    20    20
   57    24    24
   58    23    23
   59    62    62
   60    77    77
   61    96    96
   62    90    90
   63    70    70
   64    25    25
   65    82    82
   66    89    89
   67    16    16
   68    56    56
   69    95    95
   70    80    80
   71    60    60
   72    54    54
   73    23    23
   74    46    46
   75    35    35
   76    44    44
   77    23    23
   78    51    51
   79    17    17
   80    76    76
   81    58    58
   82    17    17
   83    88    88
   84    18    18
   85    89    89
   86     2     2
   87    20    20
   88    64    64
   89    98    98
   90    39    39
   91    45    45
   92    96    96
   93    76    76
   94     9     9
   95    76    76
   96    17    17
   97    38    38
   98     9     9
   99    63    63
  100    30    30
2526
